time_horizon = 48;
num_of_generators = 15;
num_of_loads = 10;
% oil (small), classic coal (small), classic coal (medium), large PV, extra large PV, city wind, off-shore wind, hydro (small), hydro (large), nuclear (old,classic)
% classic coal (small), classic coal (medium), city wind, off-shore wind, nuclear (old,classic)
% with temp. loss of wind, temp. loss of solar
gen_max = [|10, 10, 10, 10, 10, 10, 10, 10, 10, 10, 10, 10, 10, 10, 10, 10, 10, 10, 10, 10, 10, 10, 10, 10,10, 10, 10, 10, 10, 10, 10, 10, 10, 10, 10, 10,10, 10, 10, 10, 10, 10, 10, 10, 10, 10, 10, 10,
         |100, 100,100, 100,100, 100,100, 100,100, 100,100, 100,100, 100,100, 100,100, 100,100, 100,100, 100,100, 100,100, 100,100, 100,100, 100,100, 100,100, 100,100, 100,100, 100,100, 100,100, 100,100, 100,100, 100,100, 100,
         |500, 500,500, 500,500, 500,500, 500,500, 500,500, 500,500, 500,500, 500,500, 500,500, 500,500, 500,500, 500,500, 500,500, 500,500, 500,500, 500,500, 500,500, 500,500, 500,500, 500,500, 500,500, 500,500, 500,500, 500,
         |  0,   0,  0,   0,  0,  20, 40, 100,200, 500,1000, 1000, 1500, 1400,  0,  0,   0,500, 100, 10,  0,   0,  0,  0, 0,   0,  0,   0,  0,  20, 40, 100,200, 500,1000, 1000, 1500, 1400,  0, 400,   0,500, 100, 10,  0,   0,  0,  0,
         |  0,   0,  0,   0,  0,  40, 80, 200,400, 1000,2000, 2000, 3000,   0,  0,  0,   0, 10,  10, 10,  0,   0,  0,  0, 0,   0,  0,   0,  0,  40, 80, 200,400,1000,2000, 2000, 3000, 2800, 100,400, 500,500, 100, 10,  0,   0,  0,  0,
         | 10,  20, 50, 100,100,  50, 40,  30,  0,    0,   0,    0,    0,  50, 50, 10, 100,100, 100,100,  0,   0,  0, 50,90,   0,  0, 100,200,   0,  0,   0,  0,   0,   0,  100,   20,   30,  0,  90,   0,  0,   0,  0, 50,  50,200,200,
         |200, 300,300, 200,100,  50,  0,   0, 10,  300, 200,  100,  300, 200,100,  0, 300,  0,  200, 0,500, 100, 20, 10, 0, 200,300, 200,100, 100, 200, 300,300,300, 400,  50,   10,    5,   0,  0,   0,   0, 100, 200,300,400,300,200,
         | 50,  50, 50,  50, 50,  50,50,  50, 50,  50, 50,  50,50,  50, 50,  50, 50,  50,50,  50, 50,  50, 50,  50,50,  50, 50,  50, 50,  50,50,  50, 50,  50, 50,  50,50,  50, 50,  50, 50,  50,50,  50, 50,  50, 50,  50,
         |300, 300,300, 300,300, 300,300, 300,300, 300,300, 300,300, 300,300, 300,300, 300,300, 300,300, 300,300, 300,300, 300,300, 300,300, 300,300, 300,300, 300,300, 300,300, 300,300, 300,300, 300,300, 300,300, 300,300, 300,
         |2000,2000,2000,2000,2000,2000,2000,2000,2000,2000,2000,2000,2000,2000,2000,2000,2000,2000,2000,2000,2000,2000,2000, 2000,2000,2000,2000,2000,2000,2000,2000,2000,2000,2000,2000,2000, 2000,2000,2000,2000,2000,2000,2000,2000, 2000,2000,2000,2000,
         |100, 100,100, 100,100, 100,100, 100,100, 100,100, 100,100, 100,100, 100,100, 100,100, 100,100, 100,100, 100,100, 100,100, 100,100, 100,100, 100,100, 100,100, 100,100, 100,100, 100,100, 100,100, 100,100, 100,100, 100,
         |500, 500,500, 500,500, 500,500, 500,500, 500,500, 500,500, 500,500, 500,500, 500,500, 500,500, 500,500, 500,500, 500,500, 500,500, 500,500, 500,500, 500,500, 500,500, 500,500, 500,500, 500,500, 500,500, 500,500, 500,
         | 10,  20, 50, 100,100,  50, 40,  30,  0,    0,   0,    0,    0,  50, 50, 10, 100,100, 100,100,  0,   0,  0, 50,90,   0,  0, 100,200,   0,  0,   0,  0,   0,   0,  100,   20,   30,  0,  90,   0,  0,   0,  0, 50,  50,200,200,
         |200, 300,300, 200,100,  50,  0,   0, 10,  300, 200,  100,  300, 200,100,  0, 300,  0,  200, 0,500, 100, 20, 10, 0, 200,300, 200,100, 100, 200, 300,300,300, 400,  50,   10,    5,   0,  0,   0,   0, 100, 200,300,400,300,200,
         |2000,2000,2000,2000,2000,2000,2000,2000,2000,2000,2000,2000,2000,2000,2000,2000,2000,2000,2000,2000,2000,2000,2000, 2000,2000,2000,2000,2000,2000,2000,2000,2000,2000,2000,2000,2000, 2000,2000,2000,2000,2000,2000,2000,2000, 2000,2000,2000,2000|];

% oil (small), classic coal (small), classic coal (medium), large PV, extra large PV, city wind, off-shore wind, hydro (small), hydro (large), nuclear (old,classic)
% classic coal (small), classic coal (medium), city wind, off-shore wind, nuclear (old,classic)
% with temp. loss of wind, temp. loss of solar

dispatch_cost = [| 80, 80, 80, 80, 80, 80, 80, 80, 80, 80, 80, 80, 80, 80, 80, 80, 80, 80, 80, 80, 80, 80, 80, 80, 80, 80, 80, 80, 80, 80, 80, 80, 80, 80, 80, 80, 80, 80, 80, 80, 80, 80, 80, 80, 80, 80, 80, 80,
                 | 90,  90,  90,  90,  90,  90, 90,  90,  90,  90,  90,  90, 90,  90,  90,  90,  90,  90, 90,  90,  90,  90,  90,  90, 90,  90,  90,  90,  90,  90, 90,  90,  90,  90,  90,  90, 90,  90,  90,  90,  90,  90, 90,  90,  90,  90,  90,  90,
                 | 95,  95,  95,  95,  95,  95,  95,  95, 95,  95,  95,  95,  95,  95,  95,  95, 95,  95,  95,  95,  95,  95,  95,  95,95,  95,  95,  95,  95,  95,  95,  95,95,  95,  95,  95,  95,  95,  95,  95,95,  95,  95,  95,  95,  95,  95,  95,         
                 |0, 0, 0, 0, 0, 0,0, 0, 0, 0, 0, 0,0, 0, 0, 0, 0, 0,0, 0, 0, 0, 0, 0,0, 0, 0, 0, 0, 0,0, 0, 0, 0, 0, 0,0, 0, 0, 0, 0, 0,0, 0, 0, 0, 0, 0,
                 |0, 0, 0, 0, 0, 0,0, 0, 0, 0, 0, 0,0, 0, 0, 0, 0, 0,0, 0, 0, 0, 0, 0,0, 0, 0, 0, 0, 0,0, 0, 0, 0, 0, 0,0, 0, 0, 0, 0, 0,0, 0, 0, 0, 0, 0,
                 |0, 0, 0, 0, 0, 0,0, 0, 0, 0, 0, 0,0, 0, 0, 0, 0, 0,0, 0, 0, 0, 0, 0,0, 0, 0, 0, 0, 0,0, 0, 0, 0, 0, 0,0, 0, 0, 0, 0, 0,0, 0, 0, 0, 0, 0,
                 |0, 0, 0, 0, 0, 0,0, 0, 0, 0, 0, 0,0, 0, 0, 0, 0, 0,0, 0, 0, 0, 0, 0,0, 0, 0, 0, 0, 0,0, 0, 0, 0, 0, 0,0, 0, 0, 0, 0, 0,0, 0, 0, 0, 0, 0,
                 |5, 5, 5, 5, 5, 5,5, 5, 5, 5, 5, 5,5, 5, 5, 5, 5, 5,5, 5, 5, 5, 5, 5,5, 5, 5, 5, 5, 5,5, 5, 5, 5, 5, 5,5, 5, 5, 5, 5, 5,5, 5, 5, 5, 5, 5, 
                 |5, 5, 5, 5, 5, 5,5, 5, 5, 5, 5, 5,5, 5, 5, 5, 5, 5,5, 5, 5, 5, 5, 5,5, 5, 5, 5, 5, 5,5, 5, 5, 5, 5, 5,5, 5, 5, 5, 5, 5,5, 5, 5, 5, 5, 5, 
                 |50,50,50,50,50,50,50,50,50,50,50,50,50,50,50,50,50,50,50,50,50,50,50,50,50,50,50,50,50,50,50,50,50,50,50,50,50,50,50,50,50,50,50,50,50,50,50,50,
                 | 90,  90,  90,  90,  90,  90, 90,  90,  90,  90,  90,  90, 90,  90,  90,  90,  90,  90, 90,  90,  90,  90,  90,  90, 90,  90,  90,  90,  90,  90, 90,  90,  90,  90,  90,  90, 90,  90,  90,  90,  90,  90, 90,  90,  90,  90,  90,  90,
                 | 95,  95,  95,  95,  95,  95,  95,  95, 95,  95,  95,  95,  95,  95,  95,  95, 95,  95,  95,  95,  95,  95,  95,  95,95,  95,  95,  95,  95,  95,  95,  95,95,  95,  95,  95,  95,  95,  95,  95,95,  95,  95,  95,  95,  95,  95,  95,         
                 |0, 0, 0, 0, 0, 0,0, 0, 0, 0, 0, 0,0, 0, 0, 0, 0, 0,0, 0, 0, 0, 0, 0,0, 0, 0, 0, 0, 0,0, 0, 0, 0, 0, 0,0, 0, 0, 0, 0, 0,0, 0, 0, 0, 0, 0,
                 |0, 0, 0, 0, 0, 0,0, 0, 0, 0, 0, 0,0, 0, 0, 0, 0, 0,0, 0, 0, 0, 0, 0,0, 0, 0, 0, 0, 0,0, 0, 0, 0, 0, 0,0, 0, 0, 0, 0, 0,0, 0, 0, 0, 0, 0,
                 |50,50,50,50,50,50,50,50,50,50,50,50,50,50,50,50,50,50,50,50,50,50,50,50,50,50,50,50,50,50,50,50,50,50,50,50,50,50,50,50,50,50,50,50,50,50,50,50|];              
                    
% oil (small), classic coal (small), classic coal (medium), large PV, extra large PV, city wind, off-shore wind, hydro (small), hydro (large), nuclear (old,classic)
% classic coal (small), classic coal (medium), city wind, off-shore wind, nuclear (old,classic)
% with temp. loss of wind, temp. loss of solar
                                        
gen_min = [| 8,  8,8,  8,8,  8,8,  8,8,  8,8,  8,8,  8,8,  8,8,  8,8,  8,8,  8,8,  8,8,  8,8,  8,8,  8,8,  8,8,  8,8,  8,8,  8,8,  8,8,  8,8,  8,8,  8,8,  8,
         | 50, 50,50, 50,50, 50,50, 50,50, 50,50, 50,50, 50,50, 50,50, 50,50, 50,50, 50,50, 50,50, 50,50, 50,50, 50,50, 50,50, 50,50, 50,50, 50,50, 50,50, 50,50, 50,50, 50,50, 50,
         | 250, 250, 250, 250, 250, 250, 250, 250, 250, 250, 250, 250,250, 250, 250, 250, 250, 250, 250, 250, 250, 250, 250, 250,250, 250, 250, 250, 250, 250, 250, 250, 250, 250, 250, 250,250, 250, 250, 250, 250, 250, 250, 250, 250, 250, 250, 250, 
         | 1, 1, 1, 1, 1, 1, 1, 1, 1, 1, 1, 1,1, 1, 1, 1, 1, 1, 1, 1, 1, 1, 1, 1,1, 1, 1, 1, 1, 1, 1, 1, 1, 1, 1, 1,1, 1, 1, 1, 1, 1, 1, 1, 1, 1, 1, 1,
         | 1, 1, 1, 1, 1, 1, 1, 1, 1, 1, 1, 1,1, 1, 1, 1, 1, 1, 1, 1, 1, 1, 1, 1,1, 1, 1, 1, 1, 1, 1, 1, 1, 1, 1, 1,1, 1, 1, 1, 1, 1, 1, 1, 1, 1, 1, 1,
         | 1, 1, 1, 1, 1, 1, 1, 1, 1, 1, 1, 1,1, 1, 1, 1, 1, 1, 1, 1, 1, 1, 1, 1,1, 1, 1, 1, 1, 1, 1, 1, 1, 1, 1, 1,1, 1, 1, 1, 1, 1, 1, 1, 1, 1, 1, 1,
         | 1, 1, 1, 1, 1, 1, 1, 1, 1, 1, 1, 1,1, 1, 1, 1, 1, 1, 1, 1, 1, 1, 1, 1,1, 1, 1, 1, 1, 1, 1, 1, 1, 1, 1, 1,1, 1, 1, 1, 1, 1, 1, 1, 1, 1, 1, 1,
         |10,10,10,10,10,10,10,10,10,10,10,10,10,10,10,10,10,10,10,10,10,10,10,10,10,10,10,10,10,10,10,10,10,10,10,10,10,10,10,10,10,10,10,10,10,10,10,10,
         |50,50,50,50,50,50,50,50,50,50,50,50,50,50,50,50,50,50,50,50,50,50,50,50,50,50,50,50,50,50,50,50,50,50,50,50,50,50,50,50,50,50,50,50,50,50,50,50,
         |500,500,500,500,500,500,500,500,500,500,500,500,500,500,500,500,500,500,500,500,500,500,500,500,500,500,500,500,500,500,500,500,500,500,500,500,500,500,500,500,500,500,500,500,500,500,500,500,
         | 50, 50,50, 50,50, 50,50, 50,50, 50,50, 50,50, 50,50, 50,50, 50,50, 50,50, 50,50, 50,50, 50,50, 50,50, 50,50, 50,50, 50,50, 50,50, 50,50, 50,50, 50,50, 50,50, 50,50, 50,
         | 250, 250, 250, 250, 250, 250, 250, 250, 250, 250, 250, 250,250, 250, 250, 250, 250, 250, 250, 250, 250, 250, 250, 250,250, 250, 250, 250, 250, 250, 250, 250, 250, 250, 250, 250,250, 250, 250, 250, 250, 250, 250, 250, 250, 250, 250, 250,
         | 1, 1, 1, 1, 1, 1, 1, 1, 1, 1, 1, 1,1, 1, 1, 1, 1, 1, 1, 1, 1, 1, 1, 1,1, 1, 1, 1, 1, 1, 1, 1, 1, 1, 1, 1,1, 1, 1, 1, 1, 1, 1, 1, 1, 1, 1, 1,
         | 1, 1, 1, 1, 1, 1, 1, 1, 1, 1, 1, 1,1, 1, 1, 1, 1, 1, 1, 1, 1, 1, 1, 1,1, 1, 1, 1, 1, 1, 1, 1, 1, 1, 1, 1,1, 1, 1, 1, 1, 1, 1, 1, 1, 1, 1, 1,
         |500,500,500,500,500,500,500,500,500,500,500,500,500,500,500,500,500,500,500,500,500,500,500,500,500,500,500,500,500,500,500,500,500,500,500,500,500,500,500,500,500,500,500,500,500,500,500,500|];       


init_commitment = [1, 1, 1, 0, 0, 1, 1, 1, 1, 1,0,0,0,0,0];
                 
startup_cost = [200, 500, 500, 0, 0, 0, 0, 50, 50, 20000, 500, 500, 0, 0, 20000];

shutdown_cost = [200, 500, 500, 0, 0, 0, 0, 50, 50, 10000, 500, 500, 0, 0, 10000];    

max_ramp_rate = [5, 20, 100, 9999, 9999, 9999, 9999, 25, 150, 100, 20, 100, 9999, 9999, 25];

min_down = [2, 4, 6, 0, 0, 0, 0, 1, 1, 8, 4, 6, 0, 0, 8];
max_num_start = [2, 1, 1, 9999, 9999, 9999, 9999, 9999, 9999, 1, 1, 1, 9999, 9999, 1];
%max_ramp_rate = [9999, 9999, 9999, 9999, 9999, 9999, 9999, 9999, 9999, 9999];

demand  = [|10, 10, 10, 10,  10, 10, 20, 50, 50, 60, 90, 120, 140, 160, 140, 140, 140, 140, 200, 200, 150, 30, 20, 10, 10, 10, 10, 10,  10, 10, 20, 50, 50, 60, 90, 120, 140, 160, 140, 140, 140, 140, 200, 200, 150, 30, 20, 10,
      |10, 10, 10, 10,  10, 10, 20, 50, 50, 60, 90, 120, 140, 160, 140, 140, 140, 140, 200, 200, 150, 30, 20, 10, 10, 10, 10, 10,  10, 10, 20, 50, 50, 60, 90, 120, 140, 160, 140, 140, 140, 140, 200, 200, 150, 30, 20, 10,
      |10, 10, 10, 10,  10, 10, 20, 50, 50, 60, 90, 120, 140, 160, 140, 140, 140, 140, 200, 200, 150, 30, 20, 10, 10, 10, 10, 10,  10, 10, 20, 50, 50, 60, 90, 120, 140, 160, 140, 140, 140, 140, 200, 200, 150, 30, 20, 10,
      |15, 20, 20, 20,  20, 15, 40,100,100,120,180, 240, 280, 320, 280, 280, 280, 280, 400, 400, 300, 60, 20, 10, 10, 10, 10, 20,  20, 20, 40,100,100,120,180, 240, 280, 320, 280, 280, 280, 280, 400, 400, 300, 30, 20, 10,
      |15, 20, 20, 20,  20, 15, 40,100,100,120,180, 240, 280, 320, 280, 280, 280, 280, 400, 400, 300, 60, 20, 10, 10, 10, 10, 20,  20, 20, 40,100,100,120,180, 240, 280, 320, 280, 280, 280, 280, 400, 400, 300, 30, 20, 10,      
      |15, 20, 20, 20,  20, 15, 40,100,100,120,180, 240, 280, 320, 280, 280, 280, 280, 400, 400, 300, 60, 20, 10, 10, 10, 10, 20,  20, 20, 40,100,100,120,180, 240, 280, 320, 280, 280, 280, 280, 400, 400, 300, 30, 20, 10,            
      |200,200,200,200,200,200,200,200,200,200,200,200,200,200,200,200,200,200,200,200,200,200,200,200,200,200,200,200,200,200,200,200,200,200,200,200,200,200,200,200,200,200,200,200,200,200,200,200,
      |400,400,200,100,  0,  0,  0,  0,400,400,200,100,  0,  0,  0,  0,400,400,200,100,  0,  0,  0,  0,400,400,200,100,  0,  0,  0,  0,400,400,200,100,  0,  0,  0,  0,400,400,200,100,  0,  0,  0,  0,
      |200,200,200,200,200,200,200,200,200,200,200,200,200,200,200,200,200,200,200,200,200,200,200,200,200,200,200,200,200,200,200,200,200,200,200,200,200,200,200,200,200,200,200,200,200,200,200,200,
      |400,400,200,100,  0,  0,  0,  0,400,400,200,100,  0,  0,  0,  0,400,400,200,100,  0,  0,  0,  0,400,400,200,100,  0,  0,  0,  0,400,400,200,100,  0,  0,  0,  0,400,400,200,100,  0,  0,  0,  0|]; 
      
      
shed_cost = [100000, 100000, 100000, 100000, 100000, 100000, 200, 200, 100, 100];